Wallet Address,Wallet Name
0x60fd35191ffa774e40934efb8ed34b2ec42da320,dingalingg
0xba19ba5233b49794c33f01654e99a60e579e6f29,KRO
0x0f0eae91990140c560d4156db4f00c854dc8f09e,VincentVanDough
0xfa42d7f197f2793cca274186a4bdbf6ade5a8884,3AnonsVault
0xc46db2d89327d4c41eb81c43ed5e3dff111f9a8f,comfygang
0x8dbbca57ea56290efa14d835bbfd34faf1d89753,VonMises
0x668e961736454a2444adb485340cb7f0844ddd3d,Ares
0x51636d9efbfb79631824dd6107d54f2dcf548359,bobo_dreams_of_nfts
0x3c6aeff92b4b35c2e1b196b57d0f8ffb56884a17,manofdominance
0xfd22004806a6846ea67ad883356be810f0428793,punk6529
0x11360f0c5552443b33720a44408aba01a809905e,Shamdoo
0x721931508df2764fd4f70c53da646cb8aed16ace,Coco__Bear
0x98d365a3df9711603dd2ab52bf45b16796336726,kevwuzy
0xad097fdcd58535250c59807d6683e0a6b688d6cc,tulipvault2
0x5ea9681c3ab9b5739810f8b91ae65ec47de62119,Gennady
0x60251579f5d1be1483ecac3519c9f0515dd9e023,ZhangKai666
0xaf9e18cd797548220317fb459095c6afac5c33a7,Shatt-Vault
0x65546f3419e360b6c62c88f8a060cd1c112bb80b,0xSwombat
0x7d4823262bd2c6e4fa78872f2587dda2a65828ed,ricky
0x1d00ff1416cf4ed1ceaae24bfddf8e4997bc3507,banksfucks
0xd197d72af51969dcb6bbf59622bea6a6ff6c9b3b,PaperD
0x20b38b163765c3a9afef81781f06cae22fef3290,PaperD_TheVault
0x6f35b0cfc58eb1e21eef8a439bbb0ce4c929d32a,Cry
0x96a6913b41b99e0f20b27148677ccdeebb16ea06,darylmorey
0xcfc9e5258a8773cea0440077779a17096a045bf2,economist
0x59560854986b354d2dbc4368a09526dae0b244db,deconomist
0x011ea68c15f4a8316da45c1e7844311cdd0ba149,GG14
0xe8ac0cf3a9cea74e7653a863499e8e661440be13,imbatman
0xe1d29d0a39962a9a8d2a297ebe82e166f8b8ec18,KeyboardMonkeyVault
0xaB60Ba778D6D36fB20B688Ec9e6Ef8a6d3Fb0589,ClosingMedal950
0x0Da6A4A175795E372378f56DB8bcFBB55ce9889E,kingDre
0x2eE5d23E07C2a977603D7078EefFFFc7fEdEcAB5,Yayo
